c colouring generated by benchmark framework
p edge 527 13702
v 1 18
v 2 18
v 3 15
v 4 8
v 5 21
v 6 16
v 7 2
v 8 3
v 9 0
v 10 12
v 11 11
v 12 6
v 13 25
v 14 3
v 15 10
v 16 20
v 17 13
v 18 21
v 19 1
v 20 15
v 21 5
v 22 25
v 23 24
v 24 16
v 25 19
v 26 4
v 27 5
v 28 17
v 29 11
v 30 19
v 31 7
v 32 18
v 33 6
v 34 9
v 35 18
v 36 8
v 37 10
v 38 13
v 39 12
v 40 9
v 41 4
v 42 7
v 43 10
v 44 23
v 45 21
v 46 24
v 47 6
v 48 25
v 49 15
v 50 3
v 51 21
v 52 1
v 53 4
v 54 16
v 55 0
v 56 23
v 57 13
v 58 23
v 59 7
v 60 20
v 61 16
v 62 0
v 63 25
v 64 8
v 65 17
v 66 19
v 67 5
v 68 18
v 69 20
v 70 22
v 71 13
v 72 14
v 73 11
v 74 10
v 75 22
v 76 6
v 77 21
v 78 5
v 79 18
v 80 14
v 81 21
v 82 0
v 83 1
v 84 12
v 85 25
v 86 19
v 87 2
v 88 13
v 89 9
v 90 3
v 91 4
v 92 10
v 93 7
v 94 8
v 95 25
v 96 12
v 97 7
v 98 24
v 99 2
v 100 16
v 101 16
v 102 23
v 103 20
v 104 17
v 105 15
v 106 6
v 107 22
v 108 21
v 109 21
v 110 5
v 111 11
v 112 17
v 113 14
v 114 25
v 115 5
v 116 9
v 117 15
v 118 0
v 119 3
v 120 2
v 121 7
v 122 10
v 123 13
v 124 1
v 125 19
v 126 12
v 127 8
v 128 13
v 129 22
v 130 4
v 131 16
v 132 12
v 133 23
v 134 6
v 135 14
v 136 0
v 137 9
v 138 17
v 139 24
v 140 22
v 141 20
v 142 16
v 143 24
v 144 25
v 145 15
v 146 11
v 147 21
v 148 7
v 149 25
v 150 3
v 151 16
v 152 5
v 153 13
v 154 7
v 155 10
v 156 18
v 157 10
v 158 1
v 159 17
v 160 21
v 161 19
v 162 18
v 163 0
v 164 8
v 165 17
v 166 18
v 167 14
v 168 6
v 169 13
v 170 2
v 171 12
v 172 15
v 173 24
v 174 4
v 175 23
v 176 21
v 177 23
v 178 25
v 179 4
v 180 14
v 181 22
v 182 5
v 183 5
v 184 9
v 185 3
v 186 0
v 187 13
v 188 11
v 189 21
v 190 6
v 191 8
v 192 19
v 193 22
v 194 7
v 195 5
v 196 10
v 197 2
v 198 6
v 199 0
v 200 6
v 201 20
v 202 2
v 203 16
v 204 23
v 205 16
v 206 25
v 207 9
v 208 1
v 209 24
v 210 12
v 211 14
v 212 24
v 213 3
v 214 15
v 215 23
v 216 21
v 217 20
v 218 11
v 219 8
v 220 21
v 221 18
v 222 19
v 223 14
v 224 11
v 225 14
v 226 22
v 227 17
v 228 1
v 229 9
v 230 18
v 231 23
v 232 5
v 233 4
v 234 4
v 235 8
v 236 0
v 237 17
v 238 25
v 239 13
v 240 3
v 241 3
v 242 9
v 243 6
v 244 24
v 245 21
v 246 13
v 247 21
v 248 23
v 249 10
v 250 7
v 251 11
v 252 7
v 253 0
v 254 3
v 255 24
v 256 16
v 257 2
v 258 11
v 259 1
v 260 21
v 261 20
v 262 16
v 263 4
v 264 8
v 265 18
v 266 19
v 267 12
v 268 3
v 269 9
v 270 15
v 271 14
v 272 9
v 273 22
v 274 13
v 275 23
v 276 23
v 277 13
v 278 8
v 279 19
v 280 4
v 281 6
v 282 13
v 283 7
v 284 19
v 285 0
v 286 17
v 287 2
v 288 1
v 289 24
v 290 1
v 291 16
v 292 7
v 293 25
v 294 10
v 295 2
v 296 20
v 297 18
v 298 4
v 299 10
v 300 15
v 301 3
v 302 0
v 303 12
v 304 21
v 305 14
v 306 5
v 307 12
v 308 17
v 309 18
v 310 5
v 311 11
v 312 23
v 313 15
v 314 13
v 315 9
v 316 25
v 317 11
v 318 22
v 319 24
v 320 19
v 321 4
v 322 24
v 323 3
v 324 19
v 325 2
v 326 16
v 327 8
v 328 20
v 329 1
v 330 12
v 331 1
v 332 22
v 333 14
v 334 23
v 335 25
v 336 17
v 337 6
v 338 16
v 339 6
v 340 5
v 341 7
v 342 23
v 343 10
v 344 21
v 345 8
v 346 5
v 347 4
v 348 9
v 349 15
v 350 13
v 351 24
v 352 17
v 353 22
v 354 3
v 355 0
v 356 19
v 357 18
v 358 21
v 359 19
v 360 16
v 361 9
v 362 12
v 363 17
v 364 14
v 365 2
v 366 4
v 367 20
v 368 2
v 369 18
v 370 1
v 371 16
v 372 1
v 373 6
v 374 23
v 375 5
v 376 15
v 377 9
v 378 2
v 379 15
v 380 24
v 381 21
v 382 5
v 383 20
v 384 22
v 385 0
v 386 16
v 387 19
v 388 8
v 389 16
v 390 12
v 391 13
v 392 11
v 393 18
v 394 8
v 395 12
v 396 20
v 397 25
v 398 4
v 399 21
v 400 7
v 401 17
v 402 3
v 403 11
v 404 8
v 405 9
v 406 6
v 407 14
v 408 17
v 409 5
v 410 23
v 411 10
v 412 14
v 413 1
v 414 15
v 415 19
v 416 24
v 417 2
v 418 3
v 419 15
v 420 22
v 421 13
v 422 22
v 423 16
v 424 14
v 425 18
v 426 7
v 427 25
v 428 11
v 429 15
v 430 4
v 431 5
v 432 22
v 433 8
v 434 3
v 435 6
v 436 17
v 437 20
v 438 20
v 439 21
v 440 9
v 441 16
v 442 10
v 443 23
v 444 2
v 445 17
v 446 2
v 447 19
v 448 13
v 449 1
v 450 1
v 451 13
v 452 8
v 453 14
v 454 14
v 455 12
v 456 22
v 457 16
v 458 0
v 459 24
v 460 22
v 461 9
v 462 0
v 463 5
v 464 5
v 465 25
v 466 24
v 467 15
v 468 4
v 469 6
v 470 7
v 471 21
v 472 7
v 473 2
v 474 20
v 475 19
v 476 10
v 477 11
v 478 3
v 479 17
v 480 4
v 481 17
v 482 23
v 483 14
v 484 7
v 485 1
v 486 23
v 487 22
v 488 12
v 489 9
v 490 3
v 491 18
v 492 18
v 493 0
v 494 12
v 495 9
v 496 14
v 497 15
v 498 21
v 499 0
v 500 16
v 501 8
v 502 13
v 503 10
v 504 2
v 505 6
v 506 16
v 507 20
v 508 19
v 509 17
v 510 11
v 511 5
v 512 25
v 513 15
v 514 10
v 515 20
v 516 22
v 517 22
v 518 22
v 519 1
v 520 4
v 521 2
v 522 11
v 523 7
v 524 14
v 525 19
v 526 14
v 527 0
